NAME: random-63-29191
TYPE: TSP
COMMENT: size=63 seed=29191
DIMENSION: 128
EDGE_WEIGHT_TYPE: EUC_2D
NODE_COORD_SECTION
+0 137 726
-0 137 726
+1 486 975
-1 573 746
+2 930 671
-2 522 701
+3 340 199
-3 197 159
+4 80 311
-4 216 595
+5 531 870
-5 195 467
+6 60 696
-6 361 162
+7 335 189
-7 796 663
+8 125 902
-8 268 996
+9 840 699
-9 526 203
+10 180 745
-10 598 999
+11 989 8
-11 162 606
+12 934 54
-12 213 808
+13 48 776
-13 499 170
+14 637 95
-14 850 224
+15 573 837
-15 922 720
+16 744 830
-16 64 672
+17 646 859
-17 366 560
+18 349 758
-18 654 95
+19 237 462
-19 12 278
+20 857 581
-20 578 579
+21 532 326
-21 378 939
+22 916 32
-22 779 666
+23 293 108
-23 647 441
+24 993 459
-24 591 629
+25 143 601
-25 913 513
+26 78 889
-26 126 119
+27 307 167
-27 430 700
+28 659 778
-28 652 305
+29 161 339
-29 527 563
+30 228 682
-30 165 357
+31 197 48
-31 17 289
+32 986 699
-32 798 717
+33 626 549
-33 983 65
+34 956 10
-34 581 190
+35 115 538
-35 560 259
+36 815 886
-36 307 306
+37 712 926
-37 37 133
+38 479 272
-38 321 497
+39 593 690
-39 393 92
+40 95 817
-40 775 419
+41 742 914
-41 517 389
+42 180 875
-42 803 10
+43 903 60
-43 326 82
+44 308 248
-44 926 247
+45 841 106
-45 341 137
+46 943 434
-46 197 831
+47 246 757
-47 372 345
+48 63 110
-48 614 23
+49 185 11
-49 561 801
+50 140 139
-50 933 216
+51 869 750
-51 792 951
+52 486 832
-52 25 688
+53 860 716
-53 464 471
+54 997 279
-54 154 996
+55 977 160
-55 17 975
+56 722 865
-56 904 98
+57 421 712
-57 627 900
+58 888 183
-58 743 339
+59 460 572
-59 111 998
+60 923 13
-60 696 384
+61 560 304
-61 361 127
+62 171 44
-62 205 683
+63 950 970
-63 242 288
PRECEDENCE_SECTION
+0 -0
+1 -1
+2 -2
+3 -3
+4 -4
+5 -5
+6 -6
+7 -7
+8 -8
+9 -9
+10 -10
+11 -11
+12 -12
+13 -13
+14 -14
+15 -15
+16 -16
+17 -17
+18 -18
+19 -19
+20 -20
+21 -21
+22 -22
+23 -23
+24 -24
+25 -25
+26 -26
+27 -27
+28 -28
+29 -29
+30 -30
+31 -31
+32 -32
+33 -33
+34 -34
+35 -35
+36 -36
+37 -37
+38 -38
+39 -39
+40 -40
+41 -41
+42 -42
+43 -43
+44 -44
+45 -45
+46 -46
+47 -47
+48 -48
+49 -49
+50 -50
+51 -51
+52 -52
+53 -53
+54 -54
+55 -55
+56 -56
+57 -57
+58 -58
+59 -59
+60 -60
+61 -61
+62 -62
+63 -63
EOF
